25
25
1
3
3600
453 698 701 701 889 893 961 973 1152 1293 1349 1535 1558 1636 1705 1811 1820 1946 1965 1969 2017 2061 2294 2294 2767 
21 22 30 11 35 21 35 21 16 34 21 36 5 16 35 40 31 40 20 26 12 27 15 25 36 
